(set-logic QF_LRA)
(declare-fun X0 () Real )
(declare-fun Y0 () Real )
(declare-fun X1 () Real )
(declare-fun Y1 () Real )
(declare-fun X2 () Real )
(declare-fun Y2 () Real )
(declare-fun X3 () Real )
(declare-fun Y3 () Real )
(declare-fun X4 () Real )
(declare-fun Y4 () Real )
(declare-fun X5 () Real )
(declare-fun Y5 () Real )
(declare-fun Z () Real )
(declare-fun k () Real )
(assert (let
(( $goal (>= Z k) ))
(let
((
$phi ( and 
( or ( <= ( + X0 15 ) X1 )  ( <= ( + X1 94 ) X0 )  ( <= ( + Y0 71 ) Y1 )  ( <= ( + Y1 96 ) Y0 )  )
( or ( <= ( + X0 15 ) X2 )  ( <= ( + X2 97 ) X0 )  ( <= ( + Y0 71 ) Y2 )  ( <= ( + Y2 53 ) Y0 )  )
( or ( <= ( + X0 15 ) X3 )  ( <= ( + X3 32 ) X0 )  ( <= ( + Y0 71 ) Y3 )  ( <= ( + Y3 77 ) Y0 )  )
( or ( <= ( + X0 15 ) X4 )  ( <= ( + X4 86 ) X0 )  ( <= ( + Y0 71 ) Y4 )  ( <= ( + Y4 48 ) Y0 )  )
( or ( <= ( + X0 15 ) X5 )  ( <= ( + X5 74 ) X0 )  ( <= ( + Y0 71 ) Y5 )  ( <= ( + Y5 39 ) Y0 )  )
( or ( <= ( + X1 94 ) X2 )  ( <= ( + X2 97 ) X1 )  ( <= ( + Y1 96 ) Y2 )  ( <= ( + Y2 53 ) Y1 )  )
( or ( <= ( + X1 94 ) X3 )  ( <= ( + X3 32 ) X1 )  ( <= ( + Y1 96 ) Y3 )  ( <= ( + Y3 77 ) Y1 )  )
( or ( <= ( + X1 94 ) X4 )  ( <= ( + X4 86 ) X1 )  ( <= ( + Y1 96 ) Y4 )  ( <= ( + Y4 48 ) Y1 )  )
( or ( <= ( + X1 94 ) X5 )  ( <= ( + X5 74 ) X1 )  ( <= ( + Y1 96 ) Y5 )  ( <= ( + Y5 39 ) Y1 )  )
( or ( <= ( + X2 97 ) X3 )  ( <= ( + X3 32 ) X2 )  ( <= ( + Y2 53 ) Y3 )  ( <= ( + Y3 77 ) Y2 )  )
( or ( <= ( + X2 97 ) X4 )  ( <= ( + X4 86 ) X2 )  ( <= ( + Y2 53 ) Y4 )  ( <= ( + Y4 48 ) Y2 )  )
( or ( <= ( + X2 97 ) X5 )  ( <= ( + X5 74 ) X2 )  ( <= ( + Y2 53 ) Y5 )  ( <= ( + Y5 39 ) Y2 )  )
( or ( <= ( + X3 32 ) X4 )  ( <= ( + X4 86 ) X3 )  ( <= ( + Y3 77 ) Y4 )  ( <= ( + Y4 48 ) Y3 )  )
( or ( <= ( + X3 32 ) X5 )  ( <= ( + X5 74 ) X3 )  ( <= ( + Y3 77 ) Y5 )  ( <= ( + Y5 39 ) Y3 )  )
( or ( <= ( + X4 86 ) X5 )  ( <= ( + X5 74 ) X4 )  ( <= ( + Y4 48 ) Y5 )  ( <= ( + Y5 39 ) Y4 )  )
( >= X0 0)
( <= ( + X0 15) Z)
( >= Y0 0)
( <= ( + Y0 71 ) 100)
( >= X1 0)
( <= ( + X1 94) Z)
( >= Y1 0)
( <= ( + Y1 96 ) 100)
( >= X2 0)
( <= ( + X2 97) Z)
( >= Y2 0)
( <= ( + Y2 53 ) 100)
( >= X3 0)
( <= ( + X3 32) Z)
( >= Y3 0)
( <= ( + Y3 77 ) 100)
( >= X4 0)
( <= ( + X4 86) Z)
( >= Y4 0)
( <= ( + Y4 48 ) 100)
( >= X5 0)
( <= ( + X5 74) Z)
( >= Y5 0)
( <= ( + Y5 39 ) 100)
) )
)(=> $phi $goal))))